Maximize

8 x_0 + 5 x_1 + 8 x_2 + 5 x_3 + 9 x_4


Subject To

a0: r_0_0 + r_0_1 + r_0_2 + r_0_3 + r_0_4 <= 1
a1: r_1_0 + r_1_1 + r_1_2 + r_1_3 + r_1_4 <= 10
a2: r_2_0 + r_2_1 + r_2_2 + r_2_3 + r_2_4 <= 3
a3: r_3_0 + r_3_1 + r_3_2 + r_3_3 + r_3_4 <= 4
a4: r_4_0 + r_4_1 + r_4_2 + r_4_3 + r_4_4 <= 10
a5: r_5_0 + r_5_1 + r_5_2 + r_5_3 + r_5_4 <= 4
a6: r_6_0 + r_6_1 + r_6_2 + r_6_3 + r_6_4 <= 1
a7: r_7_0 + r_7_1 + r_7_2 + r_7_3 + r_7_4 <= 30
b0: 0 r_0_0 + 0 r_1_0 + 1 r_2_0 + 1 r_3_0 + 0 r_4_0 + 0 r_5_0 + 0 r_6_0 + 0 r_7_0 - 2 x_0 = 0
b1: 0 r_0_1 + 0 r_1_1 + 1 r_2_1 + 1 r_3_1 + 0 r_4_1 + 0 r_5_1 + 0 r_6_1 + 0 r_7_1 - 8 x_1 = 0
b2: 0 r_0_2 + 0 r_1_2 + 1 r_2_2 + 1 r_3_2 + 0 r_4_2 + 0 r_5_2 + 0 r_6_2 + 0 r_7_2 - 0 x_2 = 0
b3: 0 r_0_3 + 0 r_1_3 + 1 r_2_3 + 1 r_3_3 + 0 r_4_3 + 0 r_5_3 + 0 r_6_3 + 0 r_7_3 - 0 x_3 = 0
b4: 0 r_0_4 + 0 r_1_4 + 1 r_2_4 + 1 r_3_4 + 0 r_4_4 + 0 r_5_4 + 0 r_6_4 + 0 r_7_4 - 5 x_4 = 0
b5: 0 r_0_0 + 1 r_1_0 + 0 r_2_0 + 0 r_3_0 + 0 r_4_0 + 0 r_5_0 + 0 r_6_0 + 0 r_7_0 - 0 x_0 = 0
b6: 0 r_0_1 + 1 r_1_1 + 0 r_2_1 + 0 r_3_1 + 0 r_4_1 + 0 r_5_1 + 0 r_6_1 + 0 r_7_1 - 5 x_1 = 0
b7: 0 r_0_2 + 1 r_1_2 + 0 r_2_2 + 0 r_3_2 + 0 r_4_2 + 0 r_5_2 + 0 r_6_2 + 0 r_7_2 - 5 x_2 = 0
b8: 0 r_0_3 + 1 r_1_3 + 0 r_2_3 + 0 r_3_3 + 0 r_4_3 + 0 r_5_3 + 0 r_6_3 + 0 r_7_3 - 7 x_3 = 0
b9: 0 r_0_4 + 1 r_1_4 + 0 r_2_4 + 0 r_3_4 + 0 r_4_4 + 0 r_5_4 + 0 r_6_4 + 0 r_7_4 - 5 x_4 = 0
b10: 1 r_0_0 + 0 r_1_0 + 0 r_2_0 + 0 r_3_0 + 0 r_4_0 + 0 r_5_0 + 1 r_6_0 + 0 r_7_0 - 2 x_0 = 0
b11: 1 r_0_1 + 0 r_1_1 + 0 r_2_1 + 0 r_3_1 + 0 r_4_1 + 0 r_5_1 + 1 r_6_1 + 0 r_7_1 - 4 x_1 = 0
b12: 1 r_0_2 + 0 r_1_2 + 0 r_2_2 + 0 r_3_2 + 0 r_4_2 + 0 r_5_2 + 1 r_6_2 + 0 r_7_2 - 0 x_2 = 0
b13: 1 r_0_3 + 0 r_1_3 + 0 r_2_3 + 0 r_3_3 + 0 r_4_3 + 0 r_5_3 + 1 r_6_3 + 0 r_7_3 - 8 x_3 = 0
b14: 1 r_0_4 + 0 r_1_4 + 0 r_2_4 + 0 r_3_4 + 0 r_4_4 + 0 r_5_4 + 1 r_6_4 + 0 r_7_4 - 0 x_4 = 0
b15: 0 r_0_0 + 0 r_1_0 + 0 r_2_0 + 0 r_3_0 + 1 r_4_0 + 1 r_5_0 + 0 r_6_0 + 1 r_7_0 - 0 x_0 = 0
b16: 0 r_0_1 + 0 r_1_1 + 0 r_2_1 + 0 r_3_1 + 1 r_4_1 + 1 r_5_1 + 0 r_6_1 + 1 r_7_1 - 2 x_1 = 0
b17: 0 r_0_2 + 0 r_1_2 + 0 r_2_2 + 0 r_3_2 + 1 r_4_2 + 1 r_5_2 + 0 r_6_2 + 1 r_7_2 - 15 x_2 = 0
b18: 0 r_0_3 + 0 r_1_3 + 0 r_2_3 + 0 r_3_3 + 1 r_4_3 + 1 r_5_3 + 0 r_6_3 + 1 r_7_3 - 5 x_3 = 0
b19: 0 r_0_4 + 0 r_1_4 + 0 r_2_4 + 0 r_3_4 + 1 r_4_4 + 1 r_5_4 + 0 r_6_4 + 1 r_7_4 - 2 x_4 = 0




Binary

x_0 x_1 x_2 x_3 x_4


General

 r_0_0 r_0_1 r_0_2 r_0_3 r_0_4 r_1_0 r_1_1 r_1_2 r_1_3 r_1_4 r_2_0 r_2_1 r_2_2 r_2_3 r_2_4 r_3_0 r_3_1 r_3_2 r_3_3 r_3_4 r_4_0 r_4_1 r_4_2 r_4_3 r_4_4 r_5_0 r_5_1 r_5_2 r_5_3 r_5_4 r_6_0 r_6_1 r_6_2 r_6_3 r_6_4 r_7_0 r_7_1 r_7_2 r_7_3 r_7_4



End
